p td 1000 2445 
892 1
892 10
892 17
892 20
892 23
892 34
892 36
892 38
892 40
892 55
892 56
892 64
892 65
892 67
892 74
892 79
892 81
892 87
892 91
892 95
892 99
892 100
892 104
892 108
892 116
892 117
892 118
892 128
892 132
892 133
892 139
892 142
892 146
892 148
892 150
892 155
892 161
892 162
892 163
892 165
892 166
892 178
892 184
892 186
892 195
892 204
892 205
892 211
892 214
892 215
892 219
892 225
892 229
892 231
892 234
892 243
892 245
892 252
892 259
892 260
892 261
892 264
892 265
892 275
892 277
892 283
892 288
892 298
892 300
892 311
892 314
892 318
892 329
892 332
892 334
892 336
892 354
892 356
892 368
892 371
892 372
892 373
892 375
892 378
892 384
892 386
892 387
892 390
892 399
892 403
892 405
892 409
892 414
892 415
892 419
892 421
892 423
892 426
892 427
892 430
892 432
892 435
892 441
892 444
892 456
892 477
892 483
892 485
892 493
892 507
892 508
892 514
892 515
892 516
892 518
892 524
892 525
892 526
892 531
892 533
892 534
892 542
892 548
892 551
892 559
892 561
892 563
892 565
892 583
892 588
892 591
892 593
892 598
892 603
892 606
892 617
892 627
892 631
892 635
892 641
892 644
892 645
892 649
892 654
892 657
892 662
892 663
892 673
892 674
892 675
892 677
892 683
892 687
892 698
892 699
892 703
892 707
892 711
892 719
892 722
892 727
892 733
892 739
892 742
892 743
892 746
892 747
892 763
892 767
892 783
892 798
892 801
892 803
892 804
892 809
892 813
892 816
892 818
892 822
892 829
892 842
892 843
892 850
892 853
892 855
892 860
892 861
892 862
892 866
892 877
892 887
892 892
892 894
892 899
892 903
892 905
892 907
892 908
892 914
892 917
892 918
892 924
892 925
892 933
892 937
892 942
892 944
892 952
892 953
892 959
892 963
892 965
892 970
892 975
892 976
892 979
892 995
892 998
892 999
892 1000
951 3
951 7
951 11
951 13
951 25
951 26
951 28
951 32
951 33
951 38
951 39
951 42
951 50
951 60
951 64
951 72
951 74
951 76
951 81
951 88
951 91
951 93
951 95
951 99
951 100
951 104
951 112
951 129
951 138
951 142
951 157
951 166
951 167
951 168
951 172
951 173
951 177
951 178
951 188
951 197
951 214
951 215
951 217
951 218
951 233
951 235
951 236
951 237
951 238
951 239
951 241
951 245
951 249
951 251
951 254
951 259
951 260
951 270
951 272
951 284
951 285
951 291
951 301
951 303
951 305
951 320
951 325
951 338
951 339
951 340
951 341
951 346
951 352
951 379
951 384
951 388
951 389
951 395
951 402
951 416
951 423
951 427
951 433
951 435
951 444
951 448
951 457
951 459
951 461
951 464
951 466
951 468
951 482
951 485
951 489
951 493
951 498
951 501
951 504
951 509
951 510
951 518
951 519
951 522
951 540
951 544
951 545
951 546
951 552
951 556
951 563
951 565
951 567
951 569
951 570
951 578
951 583
951 586
951 588
951 600
951 609
951 616
951 627
951 630
951 634
951 635
951 636
951 637
951 642
951 647
951 651
951 654
951 657
951 666
951 668
951 676
951 679
951 687
951 689
951 691
951 698
951 699
951 701
951 703
951 704
951 706
951 709
951 713
951 719
951 736
951 738
951 742
951 746
951 758
951 765
951 785
951 792
951 804
951 813
951 823
951 824
951 826
951 840
951 842
951 854
951 855
951 860
951 864
951 868
951 888
951 889
951 891
951 892
951 895
951 896
951 901
951 904
951 915
951 934
951 936
951 938
951 939
951 941
951 942
951 951
951 952
951 954
951 957
951 961
951 964
951 969
951 971
951 972
951 974
951 975
951 976
951 985
951 987
951 991
951 994
951 996
445 1
445 4
445 5
445 7
445 20
445 21
445 26
445 37
445 42
445 47
445 53
445 57
445 61
445 76
445 77
445 78
445 85
445 101
445 103
445 104
445 105
445 111
445 117
445 120
445 131
445 132
445 139
445 142
445 149
445 153
445 154
445 160
445 171
445 179
445 182
445 191
445 195
445 201
445 203
445 213
445 214
445 216
445 217
445 222
445 226
445 228
445 229
445 231
445 234
445 235
445 236
445 237
445 238
445 239
445 242
445 244
445 249
445 258
445 262
445 264
445 276
445 281
445 291
445 299
445 303
445 315
445 317
445 319
445 320
445 321
445 322
445 324
445 335
445 356
445 368
445 375
445 380
445 381
445 391
445 400
445 414
445 416
445 428
445 429
445 433
445 434
445 439
445 443
445 444
445 446
445 448
445 451
445 459
445 462
445 465
445 466
445 475
445 477
445 487
445 494
445 508
445 516
445 519
445 520
445 528
445 534
445 543
445 545
445 548
445 552
445 553
445 560
445 561
445 562
445 564
445 570
445 571
445 577
445 579
445 593
445 594
445 595
445 597
445 601
445 607
445 618
445 630
445 633
445 640
445 655
445 657
445 658
445 662
445 669
445 672
445 674
445 683
445 699
445 706
445 707
445 711
445 715
445 719
445 727
445 741
445 743
445 746
445 754
445 758
445 761
445 764
445 769
445 775
445 782
445 786
445 787
445 789
445 793
445 794
445 808
445 812
445 817
445 825
445 827
445 832
445 833
445 843
445 844
445 846
445 861
445 863
445 867
445 869
445 870
445 879
445 880
445 889
445 895
445 897
445 898
445 920
445 935
445 955
445 960
445 966
445 972
445 981
445 982
445 983
445 984
445 991
445 995
445 1000
517 2
517 3
517 5
517 8
517 9
517 10
517 11
517 16
517 17
517 26
517 28
517 34
517 35
517 37
517 46
517 52
517 57
517 60
517 66
517 68
517 72
517 73
517 76
517 77
517 81
517 85
517 102
517 105
517 112
517 114
517 117
517 118
517 121
517 124
517 134
517 135
517 139
517 143
517 144
517 151
517 153
517 155
517 157
517 161
517 176
517 177
517 179
517 180
517 185
517 186
517 193
517 197
517 206
517 213
517 214
517 228
517 236
517 237
517 238
517 239
517 244
517 247
517 258
517 259
517 263
517 271
517 285
517 293
517 299
517 301
517 302
517 307
517 312
517 323
517 326
517 328
517 332
517 333
517 340
517 349
517 355
517 363
517 364
517 365
517 370
517 381
517 384
517 389
517 391
517 397
517 404
517 414
517 415
517 416
517 418
517 422
517 425
517 426
517 427
517 429
517 432
517 436
517 438
517 440
517 444
517 450
517 453
517 454
517 463
517 464
517 470
517 478
517 480
517 489
517 493
517 496
517 497
517 501
517 506
517 507
517 515
517 517
517 522
517 526
517 529
517 531
517 532
517 540
517 550
517 553
517 554
517 556
517 569
517 572
517 578
517 584
517 587
517 597
517 599
517 601
517 603
517 609
517 626
517 629
517 637
517 641
517 650
517 654
517 657
517 658
517 659
517 668
517 680
517 682
517 683
517 685
517 695
517 699
517 700
517 701
517 704
517 706
517 708
517 712
517 713
517 714
517 715
517 719
517 723
517 731
517 737
517 742
517 744
517 745
517 747
517 752
517 753
517 757
517 760
517 768
517 775
517 787
517 793
517 799
517 806
517 812
517 817
517 819
517 825
517 827
517 828
517 835
517 837
517 839
517 843
517 849
517 852
517 853
517 857
517 858
517 865
517 867
517 871
517 873
517 875
517 878
517 879
517 881
517 883
517 884
517 898
517 900
517 909
517 916
517 918
517 919
517 925
517 927
517 930
517 939
517 943
517 952
517 954
517 963
517 972
517 978
517 979
517 980
517 987
517 990
517 992
517 998
921 1
921 3
921 13
921 22
921 32
921 34
921 35
921 36
921 41
921 42
921 72
921 79
921 84
921 86
921 87
921 89
921 90
921 92
921 93
921 100
921 102
921 114
921 125
921 130
921 132
921 153
921 162
921 174
921 190
921 198
921 208
921 209
921 210
921 214
921 219
921 221
921 224
921 229
921 230
921 231
921 245
921 248
921 249
921 250
921 256
921 258
921 259
921 261
921 270
921 274
921 282
921 287
921 290
921 311
921 320
921 321
921 327
921 329
921 341
921 343
921 349
921 351
921 359
921 364
921 365
921 366
921 367
921 370
921 373
921 383
921 407
921 410
921 413
921 414
921 415
921 417
921 440
921 449
921 452
921 455
921 457
921 461
921 479
921 481
921 488
921 491
921 494
921 495
921 497
921 499
921 501
921 502
921 504
921 509
921 512
921 518
921 521
921 522
921 529
921 536
921 538
921 541
921 542
921 545
921 546
921 563
921 568
921 570
921 571
921 576
921 585
921 586
921 588
921 589
921 590
921 600
921 605
921 609
921 611
921 613
921 618
921 621
921 623
921 625
921 633
921 634
921 637
921 639
921 643
921 645
921 648
921 651
921 660
921 663
921 667
921 674
921 680
921 684
921 686
921 687
921 692
921 693
921 696
921 697
921 698
921 699
921 701
921 704
921 709
921 716
921 720
921 728
921 737
921 743
921 746
921 748
921 749
921 765
921 766
921 769
921 770
921 773
921 786
921 794
921 808
921 813
921 819
921 839
921 842
921 844
921 849
921 851
921 854
921 863
921 865
921 868
921 873
921 874
921 884
921 888
921 894
921 896
921 897
921 900
921 901
921 906
921 918
921 926
921 930
921 934
921 937
921 939
921 944
921 945
921 946
921 949
921 950
921 960
921 967
921 989
850 2
850 18
850 20
850 21
850 23
850 27
850 29
850 33
850 36
850 39
850 42
850 66
850 71
850 72
850 74
850 75
850 78
850 84
850 87
850 94
850 96
850 97
850 99
850 106
850 110
850 111
850 124
850 127
850 130
850 141
850 149
850 151
850 156
850 162
850 182
850 192
850 196
850 204
850 205
850 209
850 218
850 229
850 236
850 238
850 239
850 246
850 248
850 252
850 253
850 255
850 269
850 288
850 293
850 296
850 300
850 301
850 306
850 307
850 308
850 319
850 323
850 327
850 331
850 333
850 334
850 343
850 345
850 348
850 353
850 358
850 374
850 377
850 389
850 390
850 393
850 399
850 402
850 406
850 408
850 409
850 412
850 416
850 426
850 441
850 442
850 448
850 451
850 452
850 453
850 454
850 455
850 469
850 487
850 491
850 492
850 496
850 497
850 499
850 512
850 513
850 516
850 526
850 534
850 541
850 542
850 553
850 554
850 560
850 561
850 573
850 600
850 604
850 617
850 620
850 623
850 627
850 635
850 639
850 641
850 643
850 646
850 648
850 651
850 660
850 661
850 665
850 667
850 675
850 683
850 684
850 687
850 689
850 691
850 694
850 696
850 701
850 702
850 706
850 707
850 711
850 714
850 716
850 719
850 721
850 723
850 733
850 735
850 742
850 743
850 760
850 777
850 782
850 786
850 791
850 795
850 803
850 809
850 816
850 819
850 825
850 852
850 855
850 858
850 859
850 862
850 874
850 877
850 883
850 885
850 892
850 893
850 897
850 901
850 903
850 911
850 934
850 939
850 941
850 948
850 949
850 959
850 973
850 979
850 981
850 987
850 988
850 999
392 1
392 8
392 11
392 16
392 17
392 20
392 21
392 22
392 23
392 29
392 31
392 33
392 42
392 44
392 50
392 65
392 66
392 76
392 78
392 85
392 95
392 99
392 104
392 105
392 107
392 114
392 117
392 122
392 131
392 138
392 147
392 150
392 154
392 156
392 166
392 172
392 173
392 174
392 175
392 184
392 186
392 194
392 196
392 198
392 205
392 211
392 216
392 219
392 225
392 230
392 237
392 244
392 250
392 261
392 262
392 269
392 277
392 283
392 288
392 300
392 302
392 304
392 306
392 308
392 312
392 316
392 318
392 320
392 321
392 336
392 337
392 340
392 350
392 351
392 354
392 364
392 369
392 370
392 372
392 373
392 375
392 382
392 385
392 391
392 396
392 399
392 409
392 417
392 424
392 425
392 426
392 438
392 439
392 443
392 448
392 451
392 452
392 453
392 456
392 467
392 479
392 481
392 485
392 487
392 490
392 497
392 498
392 506
392 507
392 514
392 522
392 523
392 524
392 525
392 531
392 537
392 544
392 549
392 550
392 553
392 554
392 567
392 570
392 576
392 577
392 579
392 580
392 581
392 584
392 588
392 589
392 595
392 597
392 599
392 609
392 616
392 618
392 628
392 631
392 632
392 643
392 647
392 658
392 662
392 671
392 678
392 683
392 687
392 692
392 693
392 694
392 715
392 718
392 719
392 740
392 741
392 742
392 743
392 750
392 751
392 753
392 754
392 763
392 767
392 774
392 783
392 785
392 787
392 789
392 790
392 793
392 798
392 801
392 805
392 807
392 809
392 814
392 815
392 818
392 822
392 832
392 842
392 846
392 850
392 855
392 859
392 862
392 864
392 869
392 874
392 878
392 882
392 889
392 896
392 897
392 902
392 908
392 910
392 911
392 920
392 930
392 936
392 937
392 946
392 951
392 952
392 954
392 960
392 975
392 976
392 982
392 1000
74 4
74 7
74 11
74 13
74 20
74 22
74 29
74 30
74 31
74 33
74 46
74 56
74 57
74 65
74 66
74 69
74 76
74 89
74 92
74 94
74 99
74 101
74 111
74 112
74 119
74 123
74 129
74 130
74 134
74 145
74 155
74 158
74 160
74 168
74 174
74 176
74 178
74 187
74 188
74 191
74 195
74 203
74 206
74 215
74 216
74 219
74 220
74 227
74 230
74 239
74 242
74 243
74 247
74 251
74 267
74 270
74 271
74 272
74 274
74 276
74 283
74 284
74 285
74 288
74 300
74 304
74 312
74 313
74 316
74 319
74 322
74 328
74 331
74 338
74 342
74 346
74 348
74 349
74 353
74 354
74 356
74 360
74 371
74 375
74 379
74 389
74 391
74 392
74 397
74 404
74 411
74 421
74 423
74 433
74 436
74 438
74 439
74 459
74 460
74 461
74 465
74 467
74 474
74 476
74 485
74 491
74 495
74 499
74 502
74 503
74 504
74 505
74 507
74 514
74 528
74 534
74 538
74 541
74 549
74 550
74 551
74 558
74 565
74 568
74 575
74 580
74 583
74 592
74 593
74 595
74 596
74 598
74 600
74 607
74 612
74 614
74 622
74 629
74 639
74 643
74 646
74 647
74 653
74 654
74 655
74 658
74 664
74 665
74 667
74 668
74 670
74 675
74 678
74 692
74 707
74 717
74 719
74 720
74 725
74 727
74 728
74 731
74 734
74 735
74 738
74 743
74 745
74 748
74 760
74 761
74 777
74 779
74 783
74 787
74 793
74 794
74 797
74 802
74 806
74 808
74 809
74 810
74 812
74 815
74 819
74 821
74 825
74 829
74 842
74 844
74 845
74 865
74 873
74 877
74 879
74 881
74 888
74 890
74 899
74 904
74 907
74 912
74 913
74 915
74 920
74 925
74 929
74 932
74 949
74 963
74 974
74 977
74 980
74 984
74 999
807 1
807 7
807 8
807 10
807 11
807 17
807 18
807 21
807 22
807 23
807 25
807 29
807 32
807 52
807 53
807 54
807 60
807 66
807 68
807 85
807 90
807 91
807 92
807 103
807 107
807 110
807 113
807 115
807 123
807 126
807 127
807 128
807 140
807 142
807 144
807 151
807 157
807 158
807 166
807 169
807 177
807 178
807 183
807 185
807 191
807 196
807 198
807 205
807 208
807 215
807 218
807 226
807 229
807 233
807 236
807 238
807 244
807 245
807 247
807 250
807 254
807 256
807 263
807 265
807 269
807 277
807 280
807 285
807 287
807 296
807 302
807 317
807 325
807 329
807 330
807 331
807 343
807 346
807 355
807 356
807 371
807 379
807 380
807 384
807 399
807 402
807 417
807 432
807 433
807 437
807 440
807 441
807 443
807 444
807 447
807 450
807 455
807 462
807 470
807 473
807 481
807 482
807 484
807 488
807 493
807 495
807 504
807 512
807 520
807 521
807 525
807 526
807 530
807 532
807 543
807 546
807 547
807 556
807 566
807 571
807 573
807 589
807 596
807 603
807 617
807 627
807 630
807 635
807 639
807 641
807 646
807 651
807 658
807 659
807 663
807 673
807 676
807 680
807 682
807 691
807 697
807 699
807 701
807 706
807 710
807 714
807 721
807 723
807 725
807 729
807 740
807 742
807 744
807 755
807 769
807 773
807 774
807 780
807 781
807 783
807 794
807 805
807 806
807 810
807 811
807 816
807 827
807 828
807 829
807 833
807 841
807 845
807 848
807 854
807 863
807 869
807 874
807 879
807 880
807 882
807 893
807 911
807 912
807 919
807 921
807 923
807 930
807 939
807 944
807 950
807 951
807 954
807 955
807 957
807 958
807 964
807 973
807 976
807 980
807 985
807 989
807 991
807 998
154 2
154 5
154 11
154 18
154 30
154 33
154 35
154 37
154 44
154 48
154 53
154 54
154 56
154 69
154 70
154 77
154 78
154 86
154 94
154 97
154 102
154 103
154 107
154 112
154 128
154 139
154 141
154 142
154 144
154 148
154 159
154 167
154 172
154 179
154 197
154 199
154 202
154 208
154 228
154 230
154 233
154 237
154 241
154 246
154 247
154 256
154 262
154 274
154 276
154 278
154 279
154 288
154 290
154 293
154 301
154 305
154 317
154 319
154 324
154 326
154 336
154 341
154 343
154 344
154 358
154 360
154 362
154 369
154 371
154 379
154 382
154 389
154 395
154 403
154 404
154 413
154 414
154 415
154 416
154 417
154 419
154 420
154 424
154 435
154 436
154 448
154 449
154 455
154 457
154 458
154 464
154 467
154 468
154 469
154 474
154 478
154 481
154 483
154 489
154 490
154 506
154 507
154 509
154 537
154 539
154 541
154 542
154 569
154 572
154 579
154 582
154 593
154 598
154 602
154 603
154 605
154 606
154 609
154 610
154 617
154 619
154 623
154 627
154 637
154 665
154 666
154 673
154 680
154 685
154 690
154 691
154 693
154 697
154 704
154 707
154 712
154 721
154 727
154 733
154 740
154 743
154 748
154 755
154 756
154 758
154 760
154 774
154 778
154 788
154 790
154 800
154 809
154 810
154 813
154 815
154 822
154 828
154 830
154 832
154 833
154 836
154 837
154 840
154 841
154 845
154 853
154 860
154 865
154 881
154 882
154 886
154 888
154 899
154 901
154 905
154 906
154 918
154 919
154 924
154 939
154 944
154 953
154 955
154 959
154 960
154 962
154 964
154 967
154 971
154 977
154 985
154 986
154 988
154 991
154 993
154 998
114 5
114 17
114 18
114 27
114 39
114 40
114 52
114 55
114 56
114 60
114 63
114 67
114 68
114 71
114 72
114 74
114 77
114 83
114 96
114 97
114 104
114 107
114 116
114 127
114 138
114 140
114 146
114 147
114 148
114 157
114 163
114 166
114 169
114 178
114 179
114 185
114 198
114 200
114 205
114 229
114 248
114 258
114 259
114 267
114 278
114 279
114 281
114 284
114 292
114 293
114 294
114 305
114 313
114 317
114 325
114 330
114 331
114 332
114 333
114 334
114 337
114 342
114 347
114 351
114 353
114 361
114 362
114 363
114 370
114 374
114 375
114 376
114 390
114 406
114 408
114 409
114 410
114 416
114 420
114 424
114 426
114 433
114 439
114 445
114 450
114 451
114 458
114 460
114 461
114 463
114 467
114 480
114 484
114 488
114 490
114 494
114 495
114 503
114 508
114 514
114 523
114 535
114 539
114 542
114 543
114 562
114 570
114 574
114 580
114 596
114 599
114 600
114 602
114 603
114 605
114 608
114 616
114 629
114 631
114 638
114 639
114 641
114 647
114 656
114 660
114 668
114 672
114 673
114 677
114 678
114 682
114 684
114 685
114 686
114 698
114 700
114 701
114 704
114 705
114 714
114 719
114 722
114 732
114 735
114 736
114 745
114 748
114 750
114 754
114 755
114 760
114 766
114 769
114 772
114 773
114 776
114 778
114 786
114 799
114 814
114 817
114 827
114 829
114 840
114 841
114 846
114 850
114 853
114 860
114 865
114 866
114 873
114 881
114 884
114 891
114 893
114 894
114 911
114 914
114 926
114 936
114 938
114 939
114 942
114 948
114 955
114 961
114 962
114 965
114 971
114 979
114 980
114 984
114 986
114 989
114 994
114 999
114 1000
548 9
548 11
548 13
548 18
548 24
548 31
548 37
548 47
548 52
548 64
548 68
548 72
548 78
548 81
548 87
548 94
548 99
548 104
548 106
548 109
548 110
548 111
548 115
548 116
548 118
548 123
548 125
548 131
548 134
548 151
548 153
548 165
548 167
548 170
548 177
548 182
548 183
548 192
548 198
548 207
548 219
548 222
548 225
548 231
548 232
548 236
548 238
548 243
548 250
548 264
548 273
548 279
548 280
548 282
548 292
548 295
548 297
548 298
548 302
548 307
548 309
548 312
548 315
548 317
548 324
548 326
548 330
548 340
548 344
548 346
548 349
548 370
548 382
548 383
548 384
548 402
548 407
548 410
548 415
548 419
548 422
548 426
548 427
548 435
548 439
548 451
548 452
548 453
548 455
548 490
548 491
548 498
548 500
548 518
548 526
548 527
548 531
548 533
548 534
548 542
548 543
548 545
548 547
548 551
548 553
548 557
548 559
548 571
548 572
548 577
548 578
548 580
548 584
548 586
548 588
548 593
548 594
548 610
548 621
548 639
548 640
548 641
548 661
548 679
548 687
548 689
548 697
548 700
548 708
548 713
548 726
548 733
548 736
548 747
548 751
548 754
548 755
548 760
548 767
548 773
548 775
548 779
548 780
548 781
548 784
548 785
548 788
548 791
548 796
548 803
548 814
548 822
548 823
548 825
548 828
548 829
548 830
548 831
548 840
548 852
548 855
548 856
548 863
548 890
548 902
548 903
548 907
548 911
548 912
548 917
548 919
548 923
548 929
548 940
548 946
548 947
548 948
548 949
548 953
548 960
548 964
548 972
548 975
548 978
548 981
548 989
548 993
548 997
